Au4
1.0
        4.1712884903         0.0000000000         0.0000000000
        0.0000000000         4.1712884903         0.0000000000
        0.0000000000         0.0000000000         4.1712884903
   Au
    4
Cartesian
     0.000000000         0.000000000         0.000000000
     0.000000000         2.085644245         2.085644245
     2.085644245         0.000000000         2.085644245
     2.085644245         2.085644245         0.000000000
